% demand
num_movements = 22;
loading_factor = [1950, 1850, 1750, 900, 1050, 1300, 1800, 1000, 800, 1750, 1500, 1050, 1750, 900, 1750, 1950, 1750, 1550, 1750, 900, 1450, 950];
pickup_time = [0, 0, 0, 0, 2, 2, 3, 3, 5, 5, 5, 6, 7, 7, 7, 7, 8, 8, 9, 9, 10, 10];
delivery_time = [2, 4, 2, 2, 7, 7, 4, 4, 6, 7, 7, 7, 8, 8, 9, 9, 9, 9, 11, 11, 11, 11];

% transporter definition
total_capacity = 7000;
num_decks = 3;
capacity = [3000, 1000, 3000];

% ways out of decks
num_ways_out = 1;
paths_out = array3d(decks, ways_out, decks, [
% ways out of deck d1
2, 3, 0, 

% ways out of deck d2
3, 0, 0, 

% ways out of deck d3
0, 0, 0,	

]);

